* Problem:    stein15inf-prescaled
* Class:      LP
* Rows:       37
* Columns:    52
* Non-zeros:  172
* Format:     Free MPS
*
NAME stein15inf-prescaled
ROWS
 N R0000000
 E R0000001
 E R0000002
 E R0000003
 E R0000004
 E R0000005
 E R0000006
 E R0000007
 E R0000008
 E R0000009
 E R0000010
 E R0000011
 E R0000012
 E R0000013
 E R0000014
 E R0000015
 E R0000016
 E R0000017
 E R0000018
 E R0000019
 E R0000020
 E R0000021
 E R0000022
 E R0000023
 E R0000024
 E R0000025
 E R0000026
 E R0000027
 E R0000028
 E R0000029
 E R0000030
 E R0000031
 E R0000032
 E R0000033
 E R0000034
 E R0000035
 E R0000036
 E R0000037
COLUMNS
 c0 R0000000 1 R0000037 1
 c0 R0000036 -1 R0000031 -1
 c0 R0000026 -1 R0000021 -1
 c0 R0000010 -1 R0000007 -1
 c0 R0000004 -1 R0000003 -1
 c1 R0000000 1 R0000037 1
 c1 R0000036 -1 R0000032 -1
 c1 R0000027 -1 R0000022 -1
 c1 R0000008 -1 R0000006 -1
 c1 R0000005 -1 R0000004 -1
 c2 R0000000 1 R0000037 1
 c2 R0000036 -1 R0000033 -1
 c2 R0000028 -1 R0000023 -1
 c2 R0000009 -1 R0000007 -1
 c2 R0000005 -1 R0000001 -1
 c3 R0000000 1 R0000037 1
 c3 R0000036 -1 R0000034 -1
 c3 R0000029 -1 R0000024 -1
 c3 R0000010 -1 R0000008 -1
 c3 R0000002 -1 R0000001 -1
 c4 R0000000 1 R0000037 1
 c4 R0000036 -1 R0000035 -1
 c4 R0000030 -1 R0000025 -1
 c4 R0000009 -1 R0000006 -1
 c4 R0000003 -1 R0000002 -1
 c5 R0000000 2 R0000037 2
 c5 R0000036 -2 R0000031 -2
 c5 R0000020 -2 R0000017 -2
 c5 R0000014 -2 R0000013 -2
 c5 R0000006 -2 R0000001 -2
 c6 R0000000 1 R0000037 1
 c6 R0000036 -1 R0000032 -1
 c6 R0000018 -1 R0000016 -1
 c6 R0000015 -1 R0000014 -1
 c6 R0000007 -1 R0000002 -1
 c7 R0000000 1.2 R0000037 1.2
 c7 R0000036 -1.2 R0000033 -1.2
 c7 R0000019 -1.2 R0000017 -1.2
 c7 R0000015 -1.2 R0000011 -1.2
 c7 R0000008 -1.2 R0000003 -1.2
 c8 R0000000 1.6 R0000037 1.6
 c8 R0000036 -1.6 R0000034 -1.6
 c8 R0000020 -1.6 R0000018 -1.6
 c8 R0000012 -1.6 R0000011 -1.6
 c8 R0000009 -1.6 R0000004 -1.6
 c9 R0000000 1.2 R0000037 1.2
 c9 R0000036 -1.2 R0000035 -1.2
 c9 R0000019 -1.2 R0000016 -1.2
 c9 R0000013 -1.2 R0000012 -1.2
 c9 R0000010 -1.2 R0000005 -1.2
 c10 R0000000 1 R0000037 1
 c10 R0000036 -1 R0000031 -1
 c10 R0000030 -1 R0000027 -1
 c10 R0000024 -1 R0000023 -1
 c10 R0000016 -1 R0000011 -1
 c11 R0000000 1 R0000037 1
 c11 R0000036 -1 R0000032 -1
 c11 R0000028 -1 R0000026 -1
 c11 R0000025 -1 R0000024 -1
 c11 R0000017 -1 R0000012 -1
 c12 R0000000 1 R0000037 1
 c12 R0000036 -1 R0000033 -1
 c12 R0000029 -1 R0000027 -1
 c12 R0000025 -1 R0000021 -1
 c12 R0000018 -1 R0000013 -1
 c13 R0000000 1 R0000037 1
 c13 R0000036 -1 R0000034 -1
 c13 R0000030 -1 R0000028 -1
 c13 R0000022 -1 R0000021 -1
 c13 R0000019 -1 R0000014 -1
 c14 R0000000 1 R0000037 1
 c14 R0000036 -1 R0000035 -1
 c14 R0000029 -1 R0000026 -1
 c14 R0000023 -1 R0000022 -1
 c14 R0000020 -1 R0000015 -1
 c15 R0000001 3.6
 c16 R0000002 1.2
 c17 R0000003 2.4937936542
 c18 R0000004 2.7352113195
 c19 R0000005 1.2
 c20 R0000006 3.6
 c21 R0000007 1.2
 c22 R0000008 1.2
 c23 R0000009 2.7352113195
 c24 R0000010 1.2
 c25 R0000011 1.2
 c26 R0000012 1.2
 c27 R0000013 1.2
 c28 R0000014 1.2
 c29 R0000015 1.2
 c30 R0000016 1.2
 c31 R0000017 1.2
 c32 R0000018 2.4
 c33 R0000019 1.2
 c34 R0000020 1.3676056598
 c35 R0000021 2.2793427663
 c36 R0000022 1.3676056598
 c37 R0000023 2.2793427663
 c38 R0000024 4.5586855326
 c39 R0000025 2.0781613785
 c40 R0000026 1.2
 c41 R0000027 3.6469484261
 c42 R0000028 1.0390806892
 c43 R0000029 2.7352113195
 c44 R0000030 2.2793427663
 c45 R0000031 2.4
 c46 R0000032 1.2
 c47 R0000033 7.8970132383
 c48 R0000034 1.2
 c49 R0000035 1.2
 c50 R0000036 1.2
 c51 R0000037 1.2
RHS
 RHS1 R0000001 -1 R0000002 -1
 RHS1 R0000003 -1 R0000004 -1
 RHS1 R0000005 -1 R0000006 -1
 RHS1 R0000007 -1 R0000008 -1
 RHS1 R0000009 -1 R0000010 -1
 RHS1 R0000011 -1 R0000012 -1
 RHS1 R0000013 -1 R0000014 -1
 RHS1 R0000015 -1 R0000016 -1
 RHS1 R0000017 -1 R0000018 -1
 RHS1 R0000019 -1 R0000020 -1
 RHS1 R0000021 -1 R0000022 -1
 RHS1 R0000023 -1 R0000024 -1
 RHS1 R0000025 -1 R0000026 -1
 RHS1 R0000027 -1 R0000028 -1
 RHS1 R0000029 -1 R0000030 -1
 RHS1 R0000031 -1 R0000032 -1
 RHS1 R0000033 -1 R0000034 -1
 RHS1 R0000035 -1 R0000036 -7
 RHS1 R0000037 8
BOUNDS
 UP BND1 c0 1
 UP BND1 c1 1
 UP BND1 c2 1
 UP BND1 c3 1
 UP BND1 c4 1
 UP BND1 c5 0.5
 UP BND1 c6 1
 UP BND1 c7 0.8333333333
 UP BND1 c8 0.625
 UP BND1 c9 0.8333333333
 UP BND1 c10 1
 UP BND1 c11 1
 UP BND1 c12 1
 UP BND1 c13 1
 UP BND1 c14 1
ENDATA
